20
1 0 1
2 0 1
2 1 2
3 0 2
3 1 2
3 2 1
4 0 2
4 1 1
4 2 1
4 3 1
5 0 1
5 1 1
5 2 2
5 3 1
5 4 2
6 0 2
6 1 2
6 2 1
6 3 2
6 4 2
6 5 2
7 0 2
7 1 2
7 2 1
7 3 1
7 4 2
7 5 2
7 6 1
8 0 2
8 1 1
8 2 1
8 3 1
8 4 1
8 5 2
8 6 1
8 7 1
9 0 2
9 1 2
9 2 2
9 3 1
9 4 1
9 5 2
9 6 2
9 7 1
9 8 2
10 0 1
10 1 2
10 2 2
10 3 1
10 4 2
10 5 1
10 6 1
10 7 2
10 8 1
10 9 2
11 0 2
11 1 1
11 2 2
11 3 1
11 4 2
11 5 2
11 6 2
11 7 2
11 8 1
11 9 1
11 10 2
12 0 2
12 1 1
12 2 2
12 3 1
12 4 2
12 5 2
12 6 1
12 7 1
12 8 2
12 9 2
12 10 2
12 11 2
13 0 1
13 1 2
13 2 2
13 3 2
13 4 2
13 5 1
13 6 1
13 7 1
13 8 2
13 9 1
13 10 1
13 11 2
13 12 1
14 0 2
14 1 2
14 2 1
14 3 2
14 4 2
14 5 1
14 6 1
14 7 2
14 8 2
14 9 2
14 10 1
14 11 2
14 12 1
14 13 2
15 0 1
15 1 1
15 2 2
15 3 1
15 4 2
15 5 1
15 6 2
15 7 1
15 8 2
15 9 1
15 10 2
15 11 1
15 12 2
15 13 2
15 14 2
16 0 2
16 1 1
16 2 1
16 3 2
16 4 1
16 5 2
16 6 2
16 7 1
16 8 1
16 9 2
16 10 2
16 11 2
16 12 2
16 13 2
16 14 1
16 15 2
17 0 2
17 1 2
17 2 1
17 3 2
17 4 2
17 5 2
17 6 2
17 7 1
17 8 1
17 9 1
17 10 1
17 11 1
17 12 1
17 13 1
17 14 2
17 15 1
17 16 1
18 0 1
18 1 1
18 2 1
18 3 2
18 4 2
18 5 1
18 6 1
18 7 1
18 8 1
18 9 2
18 10 1
18 11 1
18 12 2
18 13 1
18 14 2
18 15 2
18 16 2
18 17 1
19 0 1
19 1 1
19 2 1
19 3 2
19 4 1
19 5 2
19 6 2
19 7 2
19 8 1
19 9 2
19 10 1
19 11 1
19 12 1
19 13 2
19 14 2
19 15 2
19 16 2
19 17 1
19 18 2
